(set-logic QF_S)
(declare-fun var0 () String)
(declare-fun var1 () String)
(declare-fun var2 () String)
(declare-fun var3 () String)
(declare-fun var4 () Int)
(declare-fun var5 () Int)
(declare-fun var6 () Int)
(declare-fun var7 () Int)
(assert (str.suffixof (str.replace var0 var1 var2) (str.at var3 var4)))
(assert (<= (str.to.int (str.at var1 var5)) (str.len (str.at var0 var6))))
(assert (str.prefixof "=UR_""Xfg|a" var2))
(assert (str.contains (str.substr var2 var7 var7) (str.replace var0 var2 var0)))
(check-sat)